c File: flat50_3_0.col
c
c SOURCE: Joseph Culberson (joe@cs.ualberta.ca)
c DESCRIPTION: Quasi-random coloring problem
c              generated with flatness = 0
c                             probability = 0.139
c                             known coloring = 3
c                             random seed = 1468
c              Creation Date:  Tue Jun  9 12:10:04 1998
c Maximum degree = 8 Minimum degree = 1
c p edge 50 115
c cnf created by edge2cnf
p cnf 150 545
-1 -2 0
-1 -3 0
-2 -3 0
1 2 3 0
-4 -5 0
-4 -6 0
-5 -6 0
4 5 6 0
-7 -8 0
-7 -9 0
-8 -9 0
7 8 9 0
-10 -11 0
-10 -12 0
-11 -12 0
10 11 12 0
-13 -14 0
-13 -15 0
-14 -15 0
13 14 15 0
-16 -17 0
-16 -18 0
-17 -18 0
16 17 18 0
-19 -20 0
-19 -21 0
-20 -21 0
19 20 21 0
-22 -23 0
-22 -24 0
-23 -24 0
22 23 24 0
-25 -26 0
-25 -27 0
-26 -27 0
25 26 27 0
-28 -29 0
-28 -30 0
-29 -30 0
28 29 30 0
-31 -32 0
-31 -33 0
-32 -33 0
31 32 33 0
-34 -35 0
-34 -36 0
-35 -36 0
34 35 36 0
-37 -38 0
-37 -39 0
-38 -39 0
37 38 39 0
-40 -41 0
-40 -42 0
-41 -42 0
40 41 42 0
-43 -44 0
-43 -45 0
-44 -45 0
43 44 45 0
-46 -47 0
-46 -48 0
-47 -48 0
46 47 48 0
-49 -50 0
-49 -51 0
-50 -51 0
49 50 51 0
-52 -53 0
-52 -54 0
-53 -54 0
52 53 54 0
-55 -56 0
-55 -57 0
-56 -57 0
55 56 57 0
-58 -59 0
-58 -60 0
-59 -60 0
58 59 60 0
-61 -62 0
-61 -63 0
-62 -63 0
61 62 63 0
-64 -65 0
-64 -66 0
-65 -66 0
64 65 66 0
-67 -68 0
-67 -69 0
-68 -69 0
67 68 69 0
-70 -71 0
-70 -72 0
-71 -72 0
70 71 72 0
-73 -74 0
-73 -75 0
-74 -75 0
73 74 75 0
-76 -77 0
-76 -78 0
-77 -78 0
76 77 78 0
-79 -80 0
-79 -81 0
-80 -81 0
79 80 81 0
-82 -83 0
-82 -84 0
-83 -84 0
82 83 84 0
-85 -86 0
-85 -87 0
-86 -87 0
85 86 87 0
-88 -89 0
-88 -90 0
-89 -90 0
88 89 90 0
-91 -92 0
-91 -93 0
-92 -93 0
91 92 93 0
-94 -95 0
-94 -96 0
-95 -96 0
94 95 96 0
-97 -98 0
-97 -99 0
-98 -99 0
97 98 99 0
-100 -101 0
-100 -102 0
-101 -102 0
100 101 102 0
-103 -104 0
-103 -105 0
-104 -105 0
103 104 105 0
-106 -107 0
-106 -108 0
-107 -108 0
106 107 108 0
-109 -110 0
-109 -111 0
-110 -111 0
109 110 111 0
-112 -113 0
-112 -114 0
-113 -114 0
112 113 114 0
-115 -116 0
-115 -117 0
-116 -117 0
115 116 117 0
-118 -119 0
-118 -120 0
-119 -120 0
118 119 120 0
-121 -122 0
-121 -123 0
-122 -123 0
121 122 123 0
-124 -125 0
-124 -126 0
-125 -126 0
124 125 126 0
-127 -128 0
-127 -129 0
-128 -129 0
127 128 129 0
-130 -131 0
-130 -132 0
-131 -132 0
130 131 132 0
-133 -134 0
-133 -135 0
-134 -135 0
133 134 135 0
-136 -137 0
-136 -138 0
-137 -138 0
136 137 138 0
-139 -140 0
-139 -141 0
-140 -141 0
139 140 141 0
-142 -143 0
-142 -144 0
-143 -144 0
142 143 144 0
-145 -146 0
-145 -147 0
-146 -147 0
145 146 147 0
-148 -149 0
-148 -150 0
-149 -150 0
148 149 150 0
-79 -1 0
-80 -2 0
-81 -3 0
-76 -4 0
-77 -5 0
-78 -6 0
-82 -4 0
-83 -5 0
-84 -6 0
-91 -4 0
-92 -5 0
-93 -6 0
-106 -4 0
-107 -5 0
-108 -6 0
-115 -4 0
-116 -5 0
-117 -6 0
-58 -7 0
-59 -8 0
-60 -9 0
-61 -7 0
-62 -8 0
-63 -9 0
-82 -7 0
-83 -8 0
-84 -9 0
-85 -7 0
-86 -8 0
-87 -9 0
-109 -7 0
-110 -8 0
-111 -9 0
-127 -7 0
-128 -8 0
-129 -9 0
-136 -7 0
-137 -8 0
-138 -9 0
-145 -7 0
-146 -8 0
-147 -9 0
-67 -10 0
-68 -11 0
-69 -12 0
-79 -10 0
-80 -11 0
-81 -12 0
-85 -10 0
-86 -11 0
-87 -12 0
-130 -10 0
-131 -11 0
-132 -12 0
-52 -13 0
-53 -14 0
-54 -15 0
-55 -13 0
-56 -14 0
-57 -15 0
-58 -13 0
-59 -14 0
-60 -15 0
-64 -13 0
-65 -14 0
-66 -15 0
-106 -13 0
-107 -14 0
-108 -15 0
-142 -13 0
-143 -14 0
-144 -15 0
-118 -16 0
-119 -17 0
-120 -18 0
-148 -16 0
-149 -17 0
-150 -18 0
-67 -19 0
-68 -20 0
-69 -21 0
-115 -19 0
-116 -20 0
-117 -21 0
-148 -19 0
-149 -20 0
-150 -21 0
-58 -22 0
-59 -23 0
-60 -24 0
-94 -22 0
-95 -23 0
-96 -24 0
-106 -22 0
-107 -23 0
-108 -24 0
-124 -22 0
-125 -23 0
-126 -24 0
-142 -22 0
-143 -23 0
-144 -24 0
-76 -25 0
-77 -26 0
-78 -27 0
-79 -25 0
-80 -26 0
-81 -27 0
-88 -25 0
-89 -26 0
-90 -27 0
-136 -25 0
-137 -26 0
-138 -27 0
-70 -28 0
-71 -29 0
-72 -30 0
-76 -28 0
-77 -29 0
-78 -30 0
-97 -28 0
-98 -29 0
-99 -30 0
-100 -28 0
-101 -29 0
-102 -30 0
-127 -28 0
-128 -29 0
-129 -30 0
-67 -31 0
-68 -32 0
-69 -33 0
-79 -31 0
-80 -32 0
-81 -33 0
-88 -31 0
-89 -32 0
-90 -33 0
-94 -31 0
-95 -32 0
-96 -33 0
-106 -31 0
-107 -32 0
-108 -33 0
-145 -31 0
-146 -32 0
-147 -33 0
-55 -34 0
-56 -35 0
-57 -36 0
-112 -34 0
-113 -35 0
-114 -36 0
-121 -34 0
-122 -35 0
-123 -36 0
-58 -37 0
-59 -38 0
-60 -39 0
-61 -37 0
-62 -38 0
-63 -39 0
-100 -37 0
-101 -38 0
-102 -39 0
-124 -37 0
-125 -38 0
-126 -39 0
-142 -37 0
-143 -38 0
-144 -39 0
-61 -40 0
-62 -41 0
-63 -42 0
-88 -40 0
-89 -41 0
-90 -42 0
-112 -40 0
-113 -41 0
-114 -42 0
-118 -40 0
-119 -41 0
-120 -42 0
-124 -40 0
-125 -41 0
-126 -42 0
-142 -40 0
-143 -41 0
-144 -42 0
-52 -43 0
-53 -44 0
-54 -45 0
-61 -43 0
-62 -44 0
-63 -45 0
-115 -43 0
-116 -44 0
-117 -45 0
-121 -43 0
-122 -44 0
-123 -45 0
-130 -43 0
-131 -44 0
-132 -45 0
-139 -43 0
-140 -44 0
-141 -45 0
-100 -46 0
-101 -47 0
-102 -48 0
-112 -46 0
-113 -47 0
-114 -48 0
-115 -46 0
-116 -47 0
-117 -48 0
-121 -46 0
-122 -47 0
-123 -48 0
-145 -46 0
-146 -47 0
-147 -48 0
-55 -49 0
-56 -50 0
-57 -51 0
-94 -49 0
-95 -50 0
-96 -51 0
-124 -49 0
-125 -50 0
-126 -51 0
-118 -52 0
-119 -53 0
-120 -54 0
-121 -52 0
-122 -53 0
-123 -54 0
-109 -55 0
-110 -56 0
-111 -57 0
-112 -55 0
-113 -56 0
-114 -57 0
-103 -58 0
-104 -59 0
-105 -60 0
-115 -58 0
-116 -59 0
-117 -60 0
-148 -58 0
-149 -59 0
-150 -60 0
-118 -64 0
-119 -65 0
-120 -66 0
-121 -64 0
-122 -65 0
-123 -66 0
-127 -64 0
-128 -65 0
-129 -66 0
-142 -64 0
-143 -65 0
-144 -66 0
-109 -70 0
-110 -71 0
-111 -72 0
-124 -70 0
-125 -71 0
-126 -72 0
-136 -70 0
-137 -71 0
-138 -72 0
-142 -70 0
-143 -71 0
-144 -72 0
-127 -73 0
-128 -74 0
-129 -75 0
-130 -73 0
-131 -74 0
-132 -75 0
-106 -76 0
-107 -77 0
-108 -78 0
-121 -76 0
-122 -77 0
-123 -78 0
-130 -76 0
-131 -77 0
-132 -78 0
-142 -79 0
-143 -80 0
-144 -81 0
-106 -82 0
-107 -83 0
-108 -84 0
-127 -82 0
-128 -83 0
-129 -84 0
-145 -82 0
-146 -83 0
-147 -84 0
-106 -85 0
-107 -86 0
-108 -87 0
-112 -85 0
-113 -86 0
-114 -87 0
-121 -85 0
-122 -86 0
-123 -87 0
-133 -85 0
-134 -86 0
-135 -87 0
-139 -88 0
-140 -89 0
-141 -90 0
-109 -91 0
-110 -92 0
-111 -93 0
-136 -91 0
-137 -92 0
-138 -93 0
-145 -91 0
-146 -92 0
-147 -93 0
-103 -94 0
-104 -95 0
-105 -96 0
-106 -94 0
-107 -95 0
-108 -96 0
-124 -94 0
-125 -95 0
-126 -96 0
-103 -97 0
-104 -98 0
-105 -99 0
-127 -100 0
-128 -101 0
-129 -102 0
-130 -100 0
-131 -101 0
-132 -102 0
